c Reduced graph for p24 generated by Cyril Grelier
p edge 34 104
e 1 2
e 1 6
e 1 11
e 1 21
e 1 30
e 1 31
e 1 33
e 2 11
e 2 21
e 2 23
e 2 34
e 3 4
e 3 11
e 3 19
e 3 22
e 3 24
e 3 31
e 4 11
e 4 17
e 4 22
e 4 23
e 4 25
e 4 26
e 4 33
e 5 8
e 5 9
e 5 17
e 5 20
e 5 22
e 5 24
e 5 30
e 6 15
e 6 29
e 6 30
e 6 31
e 6 33
e 7 9
e 7 12
e 7 13
e 7 16
e 7 25
e 7 32
e 8 10
e 8 20
e 8 22
e 8 26
e 8 30
e 9 17
e 9 24
e 9 32
e 10 12
e 10 26
e 10 27
e 10 34
e 11 21
e 11 22
e 12 13
e 12 16
e 12 25
e 12 27
e 12 34
e 13 16
e 13 18
e 13 25
e 13 28
e 14 16
e 14 19
e 14 28
e 14 32
e 15 18
e 15 20
e 15 21
e 15 29
e 16 25
e 17 23
e 17 24
e 17 25
e 17 26
e 17 33
e 18 20
e 18 21
e 18 28
e 19 24
e 19 28
e 19 31
e 19 32
e 20 21
e 20 22
e 20 30
e 22 30
e 23 25
e 23 26
e 23 33
e 23 34
e 24 31
e 25 26
e 25 33
e 26 33
e 27 29
e 27 34
e 28 32
e 30 31
e 30 33
e 31 33
